CapLotSizing_PM/src/Instancias/NCLSLT/12i6p2m/NBB09.OUT
 CG ITER, OVMR, OVMRUB =           1   16638.5039062   16638.5019531
 CG ITER, OVMR, OVMRUB =           2   16638.5019531   16638.5019531
 CG ITER, OVMR, OVMRUB =           3   16638.5019531   16638.5019531
 CG ITER, OVMR, OVMRUB =           4   16638.4921875   16638.5019531
 CG ITER, OVMR, OVMRUB =           5   16109.8115234   16638.5019531
 CG ITER, OVMR, OVMRUB =           6   16026.7919922   16638.5019531
 CG ITER, OVMR, OVMRUB =           7   15972.9541016   16638.5019531
 CG ITER, OVMR, OVMRUB =           8   15937.4394531   16638.5019531
 CG ITER, OVMR, OVMRUB =           9   15907.1503906   16638.5019531
 CG ITER, OVMR, OVMRUB =          10   15874.7490234   16638.5019531
 CG ITER, OVMR, OVMRUB =          11   15853.1083984   16638.5019531
 CG ITER, OVMR, OVMRUB =          12   15835.6279297   16638.5019531
 CG ITER, OVMR, OVMRUB =          13   15819.9541016   16324.7978516
 CG ITER, OVMR, OVMRUB =          14   15809.7041016   16324.7978516
 CG ITER, OVMR, OVMRUB =          15   15791.9716797   16324.7978516
 CG ITER, OVMR, OVMRUB =          16   15776.9677734   16324.7978516
 CG ITER, OVMR, OVMRUB =          17   15767.9326172   16324.7978516
 CG ITER, OVMR, OVMRUB =          18   15759.7578125   16324.7978516
 CG ITER, OVMR, OVMRUB =          19   15754.8779297   16324.7978516
 CG ITER, OVMR, OVMRUB =          20   15750.2216797   16324.7978516
 CG ITER, OVMR, OVMRUB =          21   15746.4101562   16324.7978516
 CG ITER, OVMR, OVMRUB =          22   15736.9853516   16324.7978516
 CG ITER, OVMR, OVMRUB =          23   15728.6191406   16324.7978516
 CG ITER, OVMR, OVMRUB =          24   15726.7626953   16324.7978516
 CG ITER, OVMR, OVMRUB =          25   15726.4707031   16277.6953125
 CG ITER, OVMR, OVMRUB =          26   15726.4335938   16120.0957031
 CG ITER, OVMR, OVMRUB =          27   15726.6035156   16120.0957031
 CG ITER, OVMR, OVMRUB =          28   15726.4707031   16120.0957031
 CG ITER, OVMR, OVMRUB =          29   15726.2558594   16109.4257812
 CG ITER, OVMR, OVMRUB =          30   15726.2421875   16109.4257812
 CG ITER, OVMR, OVMRUB =          31   15726.1875000   16010.0966797
 CG ITER, OVMR, OVMRUB =          32   15726.2656250   16010.0966797
 CG ITER, OVMR, OVMRUB =          33   15726.2656250   16010.0966797
OVLB =   15726.2656250 OVLUB =   16010.0966797 TIME =       3.3900001
